(set-logic QF_UF)
(set-info :status sat)
(check-sat)
(set-info :status unsat)
(push 1)
(assert false)
(check-sat)
(pop 1)
(set-info :status sat)
(check-sat)
(set-info :status unknown)
(assert true)
(check-sat)
(set-info :status unsat)
(push 1)
(assert false)
(check-sat)
(pop 1)
(set-info :status unsat)
(assert false)
(check-sat)

